Test: fpga10_8_sat.cnf
Options: -no-inverting-opt
WARNING: for repeatability, setting FPU to use double precision
============================[ Problem Statistics ]=============================
|                                                                             |
|  Number of symmetries:           22                                         |
|  Number of invertingSyms:         0                                         |
|  Number of variables:           120                                         |
|  Number of clauses:             448                                         |
|  Parse time:                   0.00 s                                       |
|                                                                             |
============================[ Search Statistics ]==============================
| Conflicts |          ORIGINAL         |          LEARNT          | Progress |
|           |    Vars  Clauses Literals |    Limit  Clauses Lit/Cl |          |
===============================================================================
|       100 |     120      448     1200 |      164      117     27 |  0.007 % |
===============================================================================
restarts              : 2
conflicts             : 139            (inf /sec)
symconflicts          : 46             (inf /sec)
decisions             : 320            (0.00 % random) (inf /sec)
propagations          : 2413           (inf /sec)
sympropagations       : 258            (inf /sec)
conflict literals     : 3729           (0.64 % deleted)
literals     : 3729           (0.64 % deleted)

HEURISTIC USAGES
random                : 0           
activity w/ lookahead : 0           
activity no lookahead : 0           
original sp           : 319         
sym count             : 0           

Memory used           : 5.00 MB
CPU time              : 0 s

SATISFIABLE
